
Gurobi 7.5.2 (linux64) logging started Sat Jun 23 16:37:41 2018

Changed value of parameter LogFile to result/ilp/simNo_8-n_100-m_40-s_4-minVAF_0.05-cov_2000-k_2-fn_0.15-fp_0.0001-na_0.15.ILP.gurobiSolverLog
   Prev: gurobi.log  Default: 
Changed value of parameter TimeLimit to 86400.0
   Prev: 1e+100  Min: 0.0  Max: 1e+100  Default: 1e+100
Optimize a model with 1265601 rows, 330440 columns and 3489120 nonzeros
Variable types: 0 continuous, 330440 integer (330440 binary)
Coefficient statistics:
  Matrix range     [2e-03, 3e+00]
  Objective range  [2e+00, 1e+01]
  Bounds range     [1e+00, 1e+00]
  RHS range        [2e-01, 2e+00]
Found heuristic solution: objective -14070.16514
Presolve removed 343837 rows and 215973 columns (presolve time = 6s) ...
Presolve removed 344291 rows and 215973 columns (presolve time = 10s) ...
Presolve removed 344291 rows and 215973 columns (presolve time = 15s) ...
Presolve removed 344291 rows and 215973 columns (presolve time = 21s) ...
Presolve removed 344291 rows and 215973 columns (presolve time = 25s) ...
Presolve removed 344291 rows and 215973 columns (presolve time = 30s) ...
Presolve removed 344291 rows and 215973 columns (presolve time = 40s) ...
Presolve removed 344291 rows and 215973 columns (presolve time = 42s) ...
Presolve removed 344291 rows and 215973 columns
Presolve time: 42.00s
Presolved: 921310 rows, 114467 columns, 2556070 nonzeros
Variable types: 0 continuous, 114467 integer (114467 binary)
Presolved: 114467 rows, 1035777 columns, 2670537 nonzeros

Presolve removed 114467 rows and 1035777 columns

Root simplex log...

Iteration    Objective       Primal Inf.    Dual Inf.      Time
       0    2.6275884e+01   0.000000e+00   9.537800e+04     51s
   14922   -2.1378767e+02   0.000000e+00   8.656200e+04     55s
   27963   -2.5761346e+02   0.000000e+00   6.715479e+04     60s
   36063   -2.6772991e+02   5.290202e-02   0.000000e+00     65s
   36064   -2.6772991e+02   0.000000e+00   0.000000e+00     65s
   36064   -2.6772991e+02   0.000000e+00   0.000000e+00     67s

Root relaxation: objective -2.677299e+02, 36064 iterations, 22.43 seconds
Total elapsed time = 109.59s
Total elapsed time = 123.27s
Total elapsed time = 136.42s

    Nodes    |    Current Node    |     Objective Bounds      |     Work
 Expl Unexpl |  Obj  Depth IntInf | Incumbent    BestBd   Gap | It/Node Time

     0     0 -267.72991    0 1375 -14070.165 -267.72991  98.1%     -  142s
H    0     0                    -328.1996602 -267.72991  18.4%     -  169s
     0     0 -270.60466    0 1396 -328.19966 -270.60466  17.5%     -  196s
     0     0 -274.05104    0 1395 -328.19966 -274.05104  16.5%     -  260s
     0     0 -274.35938    0 1423 -328.19966 -274.35938  16.4%     -  279s
     0     0 -274.35938    0 1421 -328.19966 -274.35938  16.4%     -  287s
     0     0 -276.67199    0 1405 -328.19966 -276.67199  15.7%     -  306s
H    0     0                    -326.5037486 -276.67199  15.3%     -  316s
     0     0 -276.72980    0 1373 -326.50375 -276.72980  15.2%     -  324s
     0     0 -278.63546    0 1376 -326.50375 -278.63546  14.7%     -  348s
     0     0 -278.68018    0 1386 -326.50375 -278.68018  14.6%     -  391s
     0     0 -278.68018    0 1346 -326.50375 -278.68018  14.6%     -  400s
     0     0 -280.35615    0 1384 -326.50375 -280.35615  14.1%     -  425s
     0     0 -280.78013    0 1393 -326.50375 -280.78013  14.0%     -  463s
     0     0 -280.78013    0 1389 -326.50375 -280.78013  14.0%     -  474s
     0     0 -282.47604    0 1386 -326.50375 -282.47604  13.5%     -  496s
     0     0 -282.68803    0 1389 -326.50375 -282.68803  13.4%     -  543s
     0     0 -282.82936    0 1391 -326.50375 -282.82936  13.4%     -  554s
     0     0 -282.93535    0 1386 -326.50375 -282.93535  13.3%     -  565s
     0     0 -282.93535    0 1388 -326.50375 -282.93535  13.3%     -  575s
     0     0 -284.63126    0 1443 -326.50375 -284.63126  12.8%     -  613s
     0     0 -285.05524    0 1467 -326.50375 -285.05524  12.7%     -  659s
     0     0 -285.05524    0 1466 -326.50375 -285.05524  12.7%     -  668s
     0     0 -285.05524    0 1366 -326.50375 -285.05524  12.7%     -  689s
     0     0 -285.05524    0 1365 -326.50375 -285.05524  12.7%     -  725s
     0     0 -287.50433    0 1470 -326.50375 -287.50433  11.9%     -  755s
     0     0 -287.54059    0 1342 -326.50375 -287.54059  11.9%     -  799s
     0     0 -287.74248    0 1351 -326.50375 -287.74248  11.9%     -  811s
     0     0 -287.79767    0 1398 -326.50375 -287.79767  11.9%     -  824s
     0     0 -287.79767    0 1397 -326.50375 -287.79767  11.9%     -  833s
     0     0 -288.95968    0 1427 -326.50375 -288.95968  11.5%     -  859s
     0     0 -289.29886    0 1519 -326.50375 -289.29886  11.4%     -  908s
     0     0 -289.38366    0 1520 -326.50375 -289.38366  11.4%     -  918s
     0     0 -289.38366    0 1521 -326.50375 -289.38366  11.4%     -  926s
     0     0 -292.55108    0 1532 -326.50375 -292.55108  10.4%     -  954s
     0     0 -292.62174    0 1529 -326.50375 -292.62174  10.4%     -  987s
     0     0 -292.64412    0 1536 -326.50375 -292.64412  10.4%     -  998s
     0     0 -292.64412    0 1542 -326.50375 -292.64412  10.4%     - 1006s
     0     0 -293.89368    0 1543 -326.50375 -293.89368  10.0%     - 1032s
     0     0 -294.26113    0 1510 -326.50375 -294.26113  9.88%     - 1079s
     0     0 -294.31766    0 1549 -326.50375 -294.31766  9.86%     - 1092s
     0     0 -294.31766    0 1542 -326.50375 -294.31766  9.86%     - 1101s
     0     0 -296.25174    0 1531 -326.50375 -296.25174  9.27%     - 1131s
     0     0 -296.59617    0 1493 -326.50375 -296.59617  9.16%     - 1169s
     0     0 -296.65140    0 1491 -326.50375 -296.65140  9.14%     - 1181s
     0     0 -296.68817    0 1491 -326.50375 -296.68817  9.13%     - 1192s
     0     0 -296.75670    0 1494 -326.50375 -296.75670  9.11%     - 1200s
     0     0 -296.78777    0 1499 -326.50375 -296.78777  9.10%     - 1210s
     0     0 -296.78777    0 1500 -326.50375 -296.78777  9.10%     - 1221s
     0     0 -297.37208    0 1560 -326.50375 -297.37208  8.92%     - 1242s
     0     0 -297.88016    0 1490 -326.50375 -297.88016  8.77%     - 1298s
     0     0 -298.10229    0 1513 -326.50375 -298.10229  8.70%     - 1309s
     0     0 -298.10936    0 1506 -326.50375 -298.10936  8.70%     - 1319s
     0     0 -298.11050    0 1510 -326.50375 -298.11050  8.70%     - 1328s
     0     0 -299.47768    0 1457 -326.50375 -299.47768  8.28%     - 1361s
H    0     0                    -324.8078371 -299.47768  7.80%     - 1396s
     0     0 -300.29318    0 1485 -324.80784 -300.29318  7.55%     - 1415s
     0     0 -300.38763    0 1464 -324.80784 -300.38763  7.52%     - 1427s
     0     0 -300.39624    0 1460 -324.80784 -300.39624  7.52%     - 1436s
     0     0 -300.39624    0 1458 -324.80784 -300.39624  7.52%     - 1444s
     0     0 -301.55806    0 1540 -324.80784 -301.55806  7.16%     - 1481s
H    0     0                    -323.1119256 -301.55806  6.67%     - 1500s
     0     0 -302.29596    0 1550 -323.11193 -302.29596  6.44%     - 1518s
     0     0 -302.33871    0 1546 -323.11193 -302.33871  6.43%     - 1531s
     0     0 -302.40069    0 1539 -323.11193 -302.40069  6.41%     - 1542s
     0     0 -302.40751    0 1547 -323.11193 -302.40751  6.41%     - 1552s
     0     0 -302.41274    0 1548 -323.11193 -302.41274  6.41%     - 1562s
     0     0 -303.20962    0 1460 -323.11193 -303.20962  6.16%     - 1597s
     0     0 -303.33717    0 1472 -323.11193 -303.33717  6.12%     - 1648s
     0     0 -303.70030    0 1472 -323.11193 -303.70030  6.01%     - 1663s
     0     0 -303.78358    0 1484 -323.11193 -303.78358  5.98%     - 1675s
     0     0 -303.82256    0 1480 -323.11193 -303.82256  5.97%     - 1686s
     0     0 -303.82961    0 1483 -323.11193 -303.82961  5.97%     - 1698s
     0     0 -303.82961    0 1486 -323.11193 -303.82961  5.97%     - 1706s
     0     0 -304.28125    0 1538 -323.11193 -304.28125  5.83%     - 1738s
     0     0 -304.40897    0 1587 -323.11193 -304.40897  5.79%     - 1780s
     0     0 -304.52768    0 1589 -323.11193 -304.52768  5.75%     - 1795s
     0     0 -304.55169    0 1599 -323.11193 -304.55169  5.74%     - 1805s
     0     0 -304.55169    0 1600 -323.11193 -304.55169  5.74%     - 1815s
     0     0 -305.83262    0 1383 -323.11193 -305.83262  5.35%     - 1850s
     0     0 -305.99955    0 1461 -323.11193 -305.99955  5.30%     - 1890s
     0     0 -306.18990    0 1504 -323.11193 -306.18990  5.24%     - 1905s
     0     0 -306.28312    0 1530 -323.11193 -306.28312  5.21%     - 1917s
     0     0 -306.28419    0 1533 -323.11193 -306.28419  5.21%     - 1925s
     0     0 -306.80279    0 1463 -323.11193 -306.80279  5.05%     - 1956s
     0     0 -307.08287    0 1505 -323.11193 -307.08287  4.96%     - 1997s
     0     0 -307.12291    0 1490 -323.11193 -307.12291  4.95%     - 2009s
     0     0 -307.12784    0 1481 -323.11193 -307.12784  4.95%     - 2019s
     0     0 -307.12784    0 1495 -323.11193 -307.12784  4.95%     - 2027s
     0     0 -307.61269    0 1406 -323.11193 -307.61269  4.80%     - 2058s
     0     0 -307.66406    0 1496 -323.11193 -307.66406  4.78%     - 2087s
     0     0 -307.84057    0 1398 -323.11193 -307.84057  4.73%     - 2101s
     0     0 -307.88101    0 1403 -323.11193 -307.88101  4.71%     - 2113s
     0     0 -307.89036    0 1407 -323.11193 -307.89036  4.71%     - 2123s
     0     0 -307.89036    0 1407 -323.11193 -307.89036  4.71%     - 2131s
     0     0 -308.69583    0 1456 -323.11193 -308.69583  4.46%     - 2157s
     0     0 -308.99897    0 1123 -323.11193 -308.99897  4.37%     - 2196s
     0     0 -309.05307    0 1120 -323.11193 -309.05307  4.35%     - 2210s
     0     0 -309.06591    0 1109 -323.11193 -309.06591  4.35%     - 2221s
     0     0 -309.06591    0 1116 -323.11193 -309.06591  4.35%     - 2232s
     0     0 -309.06591    0 1106 -323.11193 -309.06591  4.35%     - 2253s
     0     0 -309.06591    0 1106 -323.11193 -309.06591  4.35%     - 2266s
     0     0 -309.48989    0 1109 -323.11193 -309.48989  4.22%     - 2293s
     0     0 -309.48989    0 1107 -323.11193 -309.48989  4.22%     - 2306s
     0     0 -309.48989    0 1108 -323.11193 -309.48989  4.22%     - 2328s
     0     0 -309.48989    0 1107 -323.11193 -309.48989  4.22%     - 2341s
     0     0 -309.48989    0  976 -323.11193 -309.48989  4.22%     - 2485s
     0     0 -309.52073    0 1088 -323.11193 -309.52073  4.21%     - 2502s
     0     0 -309.52073    0 1079 -323.11193 -309.52073  4.21%     - 2514s
     0     0 -309.64618    0 1080 -323.11193 -309.64618  4.17%     - 2620s
     0     0 -309.66756    0 1082 -323.11193 -309.66756  4.16%     - 2633s
     0     0 -309.71864    0 1106 -323.11193 -309.71864  4.15%     - 2644s
     0     0 -309.74528    0 1111 -323.11193 -309.74528  4.14%     - 2655s
     0     0 -309.75259    0 1130 -323.11193 -309.75259  4.13%     - 2666s
     0     0 -309.75713    0 1131 -323.11193 -309.75713  4.13%     - 2677s
     0     0 -309.75713    0 1132 -323.11193 -309.75713  4.13%     - 2686s
     0     0 -309.95755    0 1080 -323.11193 -309.95755  4.07%     - 2706s
     0     0 -309.97040    0 1078 -323.11193 -309.97040  4.07%     - 2718s
     0     0 -309.97040    0 1078 -323.11193 -309.97040  4.07%     - 2726s
     0     0 -310.53570    0 1088 -323.11193 -310.53570  3.89%     - 2752s
     0     0 -310.53570    0 1091 -323.11193 -310.53570  3.89%     - 2764s
     0     0 -311.05185    0 1089 -323.11193 -311.05185  3.73%     - 2786s
     0     0 -311.05185    0 1097 -323.11193 -311.05185  3.73%     - 2800s
     0     0 -311.18177    0 1086 -323.11193 -311.18177  3.69%     - 2824s
     0     0 -311.24977    0 1094 -323.11193 -311.24977  3.67%     - 2841s
     0     0 -311.24977    0 1093 -323.11193 -311.24977  3.67%     - 2852s
     0     0 -312.01963    0 1079 -323.11193 -312.01963  3.43%     - 2880s
     0     0 -312.01963    0 1087 -323.11193 -312.01963  3.43%     - 2894s
     0     0 -312.01963    0 1090 -323.11193 -312.01963  3.43%     - 2914s
     0     0 -312.07744    0 1091 -323.11193 -312.07744  3.42%     - 2928s
     0     0 -312.07744    0 1095 -323.11193 -312.07744  3.42%     - 2939s
     0     0 -312.07744    0 1091 -323.11193 -312.07744  3.42%     - 3072s
     0     0 -312.07744    0 1093 -323.11193 -312.07744  3.42%     - 3084s
     0     0 -312.08198    0 1097 -323.11193 -312.08198  3.41%     - 3108s
     0     0 -312.08625    0 1097 -323.11193 -312.08625  3.41%     - 3123s
     0     0 -312.08625    0 1088 -323.11193 -312.08625  3.41%     - 3198s
     0     0 -312.08625    0 1088 -323.11193 -312.08625  3.41%     - 3235s
     0     2 -312.08841    0 1088 -323.11193 -312.08841  3.41%     - 3308s
     1     3 -314.59786    1  927 -323.11193 -312.08841  3.41%  2196 3331s
     2     2     cutoff    2      -323.11193 -312.08841  3.41%  1594 3346s
     3     3 -315.65527    2 1072 -323.11193 -312.08841  3.41%  1229 3355s
     4     4 -318.58546    3  702 -323.11193 -312.08841  3.41%  1010 3361s
     5     5 -319.86143    4  676 -323.11193 -312.08841  3.41%   865 3365s
     7     7 -322.12264    6  625 -323.11193 -312.08841  3.41%   654 3370s
    14     8 -312.53788    1 1522 -323.11193 -312.53788  3.27%   441 3385s
    15     9 -313.49374    2 1544 -323.11193 -312.54807  3.27%   523 3399s
    16    10 -316.62471    2 1034 -323.11193 -313.49623  2.98%  1086 3479s
    17    11 -319.78641    3  948 -323.11193 -313.49623  2.98%  1087 3495s
    18    12 -321.62365    4  918 -323.11193 -313.49623  2.98%  1081 3508s
    19    13 -322.47160    5  915 -323.11193 -313.49623  2.98%  1034 3513s
    20    12     cutoff    5      -323.11193 -313.49623  2.98%   993 3516s
    21    13 -322.89558    6  960 -323.11193 -313.49623  2.98%   963 3521s
    25    11 -318.45569    3 1496 -323.11193 -313.51415  2.97%  1121 3596s
    26    12 -318.75791    4 1067 -323.11193 -313.51415  2.97%  1105 3606s
    27    13 -318.75791    5  764 -323.11193 -313.51415  2.97%  1066 3610s
    28    14 -320.59515    6  690 -323.11193 -313.51415  2.97%  1061 3624s
    29    15 -322.29106    7  399 -323.11193 -313.51415  2.97%  1050 3634s
    30    16 -322.85637    8  686 -323.11193 -313.51415  2.97%  1027 3640s
    33    17     cutoff    9      -323.11193 -313.51415  2.97%   942 3645s
    36    16     cutoff   10      -323.11193 -313.51415  2.97%   877 3651s
    38    16 -317.24191    3 1649 -323.11193 -315.73058  2.28%   863 3670s
    39    17 -320.81478    4  770 -323.11193 -315.73058  2.28%   914 3701s
    40    18 -320.94567    5  718 -323.11193 -315.73058  2.28%   899 3707s
    41    19 -322.78291    6  637 -323.11193 -315.73058  2.28%   959 3750s
    43    19     cutoff    7      -323.11193 -315.73058  2.28%   925 3756s
    47    17     cutoff    9      -323.11193 -315.73058  2.28%   854 3761s
    48    18 -318.62235    3  774 -323.11193 -316.62630  2.01%   852 3769s
    49    19 -318.91332    4  721 -323.11193 -316.62630  2.01%   836 3773s
    50    20 -320.75056    5  701 -323.11193 -316.62630  2.01%   833 3781s
    51    21 -322.44647    6  384 -323.11193 -316.62630  2.01%   823 3787s
    53    23 -322.58780    8  338 -323.11193 -316.62630  2.01%   794 3790s
    57    19     cutoff    7      -323.11193 -316.62630  2.01%   747 3795s
    58    20 -321.59286    3 1522 -323.11193 -317.26946  1.81%   787 3831s
    59    21 -322.62471    4 1159 -323.11193 -317.26946  1.81%   792 3847s
    62    18     cutoff    4      -323.11193 -317.26946  1.81%   761 3851s
    63    19 -322.16483    4 1565 -323.11193 -318.55481  1.41%   804 3882s
    64    20 -323.11066    5  667 -323.11193 -318.55481  1.41%   798 3890s
    71    17     cutoff    5      -323.11193 -318.55481  1.41%   722 3896s
    72    18 -322.78683    4  669 -323.11193 -318.62642  1.39%   779 3963s
    73    17     cutoff    5      -323.11193 -318.62642  1.39%   800 3984s
    74    16     cutoff    5      -323.11193 -318.62642  1.39%   792 3986s
    75    17 -319.02865    4 1530 -323.11193 -318.75791  1.35%   787 3994s
    76    18 -322.94224    5  650 -323.11193 -318.75791  1.35%   787 4006s
    79    17 -320.66718    5  772 -323.11193 -318.75791  1.35%   771 4016s
    81    19 -322.61449    7  693 -323.11193 -318.75791  1.35%   760 4025s
    84    16     cutoff    7      -323.11193 -318.75791  1.35%   740 4032s
    85    17 -321.34950    6  745 -323.11193 -318.75791  1.35%   740 4041s
    86    18 -322.65689    7  717 -323.11193 -318.75791  1.35%   740 4048s
    88    16     cutoff    8      -323.11193 -318.75791  1.35%   725 4050s
    90    18 -322.65749    8  715 -323.11193 -318.75791  1.35%   718 4063s
    92    16     cutoff    9      -323.11193 -318.75791  1.35%   704 4066s
    93    17 -322.21253    8  660 -323.11193 -318.75791  1.35%   706 4077s
    95    17 -322.48702    9  762 -323.11193 -318.75791  1.35%   694 4083s
    97    15     cutoff   10      -323.11193 -318.75791  1.35%   685 4087s
    98    14     cutoff    5      -323.11193 -318.76216  1.35%   685 4095s
    99    15 -321.57019    6  820 -323.11193 -318.92024  1.30%   701 4120s
   100    14     cutoff    7      -323.11193 -318.92024  1.30%   702 4129s
   101    15 -322.67122    7  669 -323.11193 -318.92024  1.30%   715 4145s
   104    14 -322.97060    4  693 -323.11193 -319.08918  1.24%   703 4158s
   107    11     cutoff    5      -323.11193 -319.79320  1.03%   690 4166s
   108    10     cutoff    4      -323.11193 -320.42673  0.83%   690 4171s
   110     8     cutoff    7      -323.11193 -320.81750  0.71%   686 4180s
   111     9 -321.51792    5  755 -323.11193 -320.84883  0.70%   692 4192s
   112    10 -321.51812    6  761 -323.11193 -320.84883  0.70%   686 4195s
   113     9     cutoff    7      -323.11193 -320.84883  0.70%   692 4210s
   114     8     cutoff    7      -323.11193 -320.84883  0.70%   689 4215s
   116     6     cutoff    6      -323.11193 -320.96251  0.67%   683 4220s
   117     5     cutoff    6      -323.11193 -322.12264  0.31%   683 4229s
   118     4     cutoff    7      -323.11193 -322.12264  0.31%   678 4230s
   121     3     cutoff    8      -323.11193 -322.21409  0.28%   662 4236s
   124     2     cutoff    9      -323.11193 -322.86527  0.08%   649 4240s

Cutting planes:
  Gomory: 2
  MIR: 1
  Zero half: 604

Explored 127 nodes (193315 simplex iterations) in 4244.37 seconds
Thread count was 1 (of 80 available processors)

Solution count 5: -323.112 -324.808 -326.504 ... -14070.2

Optimal solution found (tolerance 1.00e-04)
Best objective -3.231119256193e+02, best bound -3.231119256193e+02, gap 0.0000%
